\ This file has been generated by DOcplex
\ ENCODING=ISO-8859-1
\Problem name: random_problem.lp

Minimize
 obj: - 152 x0 - 76 x1 - 38 x2 + 752 x3 + 376 x4 + 188 x5 - 1180 x6 - 590 x7
      - 295 x8 + 276 x9 + 138 x10 + 69 x11 - 860 x12 - 430 x13 - 215 x14
      - 228 x15 - 114 x16 - 57 x17 + 556 x18 + 278 x19 + 139 x20 + [ 2240 x0^2
      + 2240 x0*x1 + 1120 x0*x2 + 1344 x0*x3 + 672 x0*x4 + 336 x0*x5
      + 1600 x0*x6 + 800 x0*x7 + 400 x0*x8 + 2496 x0*x9 + 1248 x0*x10
      + 624 x0*x11 - 1088 x0*x12 - 544 x0*x13 - 272 x0*x14 + 1920 x0*x15
      + 960 x0*x16 + 480 x0*x17 + 1216 x0*x18 + 608 x0*x19 + 304 x0*x20
      + 560 x1^2 + 560 x1*x2 + 672 x1*x3 + 336 x1*x4 + 168 x1*x5 + 800 x1*x6
      + 400 x1*x7 + 200 x1*x8 + 1248 x1*x9 + 624 x1*x10 + 312 x1*x11
      - 544 x1*x12 - 272 x1*x13 - 136 x1*x14 + 960 x1*x15 + 480 x1*x16
      + 240 x1*x17 + 608 x1*x18 + 304 x1*x19 + 152 x1*x20 + 140 x2^2 + 336 x2*x3
      + 168 x2*x4 + 84 x2*x5 + 400 x2*x6 + 200 x2*x7 + 100 x2*x8 + 624 x2*x9
      + 312 x2*x10 + 156 x2*x11 - 272 x2*x12 - 136 x2*x13 - 68 x2*x14
      + 480 x2*x15 + 240 x2*x16 + 120 x2*x17 + 304 x2*x18 + 152 x2*x19
      + 76 x2*x20 + 3168 x3^2 + 3168 x3*x4 + 1584 x3*x5 + 2048 x3*x6
      + 1024 x3*x7 + 512 x3*x8 + 768 x3*x9 + 384 x3*x10 + 192 x3*x11
      + 1152 x3*x12 + 576 x3*x13 + 288 x3*x14 + 960 x3*x15 + 480 x3*x16
      + 240 x3*x17 + 3072 x3*x18 + 1536 x3*x19 + 768 x3*x20 + 792 x4^2
      + 792 x4*x5 + 1024 x4*x6 + 512 x4*x7 + 256 x4*x8 + 384 x4*x9 + 192 x4*x10
      + 96 x4*x11 + 576 x4*x12 + 288 x4*x13 + 144 x4*x14 + 480 x4*x15
      + 240 x4*x16 + 120 x4*x17 + 1536 x4*x18 + 768 x4*x19 + 384 x4*x20
      + 198 x5^2 + 512 x5*x6 + 256 x5*x7 + 128 x5*x8 + 192 x5*x9 + 96 x5*x10
      + 48 x5*x11 + 288 x5*x12 + 144 x5*x13 + 72 x5*x14 + 240 x5*x15
      + 120 x5*x16 + 60 x5*x17 + 768 x5*x18 + 384 x5*x19 + 192 x5*x20
      + 1568 x6^2 + 1568 x6*x7 + 784 x6*x8 + 576 x6*x9 + 288 x6*x10 + 144 x6*x11
      + 640 x6*x12 + 320 x6*x13 + 160 x6*x14 + 1728 x6*x18 + 864 x6*x19
      + 432 x6*x20 + 392 x7^2 + 392 x7*x8 + 288 x7*x9 + 144 x7*x10 + 72 x7*x11
      + 320 x7*x12 + 160 x7*x13 + 80 x7*x14 + 864 x7*x18 + 432 x7*x19
      + 216 x7*x20 + 98 x8^2 + 144 x8*x9 + 72 x8*x10 + 36 x8*x11 + 160 x8*x12
      + 80 x8*x13 + 40 x8*x14 + 432 x8*x18 + 216 x8*x19 + 108 x8*x20 + 4512 x9^2
      + 4512 x9*x10 + 2256 x9*x11 - 1088 x9*x12 - 544 x9*x13 - 272 x9*x14
      + 1728 x9*x15 + 864 x9*x16 + 432 x9*x17 - 256 x9*x18 - 128 x9*x19
      - 64 x9*x20 + 1128 x10^2 + 1128 x10*x11 - 544 x10*x12 - 272 x10*x13
      - 136 x10*x14 + 864 x10*x15 + 432 x10*x16 + 216 x10*x17 - 128 x10*x18
      - 64 x10*x19 - 32 x10*x20 + 282 x11^2 - 272 x11*x12 - 136 x11*x13
      - 68 x11*x14 + 432 x11*x15 + 216 x11*x16 + 108 x11*x17 - 64 x11*x18
      - 32 x11*x19 - 16 x11*x20 + 2048 x12^2 + 2048 x12*x13 + 1024 x12*x14
      - 704 x12*x15 - 352 x12*x16 - 176 x12*x17 + 1216 x12*x18 + 608 x12*x19
      + 304 x12*x20 + 512 x13^2 + 512 x13*x14 - 352 x13*x15 - 176 x13*x16
      - 88 x13*x17 + 608 x13*x18 + 304 x13*x19 + 152 x13*x20 + 128 x14^2
      - 176 x14*x15 - 88 x14*x16 - 44 x14*x17 + 304 x14*x18 + 152 x14*x19
      + 76 x14*x20 + 1312 x15^2 + 1312 x15*x16 + 656 x15*x17 + 64 x15*x18
      + 32 x15*x19 + 16 x15*x20 + 328 x16^2 + 328 x16*x17 + 32 x16*x18
      + 16 x16*x19 + 8 x16*x20 + 82 x17^2 + 16 x17*x18 + 8 x17*x19 + 4 x17*x20
      + 2400 x18^2 + 2400 x18*x19 + 1200 x18*x20 + 600 x19^2 + 600 x19*x20
      + 150 x20^2 ]/2
Subject To
 c0: 4 x0 + 2 x1 + x2 + 4 x3 + 2 x4 + x5 + 4 x6 + 2 x7 + x8 + 4 x9 + 2 x10 + x11
     + 4 x12 + 2 x13 + x14 + 4 x15 + 2 x16 + x17 + 4 x18 + 2 x19 + x20 = 7

Bounds
 0 <= x0 <= 1
 0 <= x1 <= 1
 0 <= x2 <= 1
 0 <= x3 <= 1
 0 <= x4 <= 1
 0 <= x5 <= 1
 0 <= x6 <= 1
 0 <= x7 <= 1
 0 <= x8 <= 1
 0 <= x9 <= 1
 0 <= x10 <= 1
 0 <= x11 <= 1
 0 <= x12 <= 1
 0 <= x13 <= 1
 0 <= x14 <= 1
 0 <= x15 <= 1
 0 <= x16 <= 1
 0 <= x17 <= 1
 0 <= x18 <= 1
 0 <= x19 <= 1
 0 <= x20 <= 1

Binaries
 x0 x1 x2 x3 x4 x5 x6 x7 x8 x9 x10 x11 x12 x13 x14 x15 x16 x17 x18 x19 x20
End
